10	5
0	2	1	2
1	1	4
2	2	8	5
3	1	4
4	1	7
5	1	6
6	1	3
7	2	10	11
8	2	9	7
9	1	11
10	1	11
11	0
0	0	0	0	0	0	0
1	5	0	1	5	0	0
2	8	0	0	4	0	0
3	8	0	2	0	0	0
4	2	1	3	1	0	2
5	2	3	0	3	5	2
6	9	5	1	3	5	1
7	7	4	0	0	0	0
8	1	1	4	4	0	4
9	7	0	0	0	1	0
10	4	2	0	0	2	0
11	0	0	0	0	0	0
5	3	4	5	3
